
Gurobi 9.0.2 (win64) logging started Sun Dec 27 06:20:16 2020

Changed value of parameter logfile to result\SunCable-20201227T0415\scenario_2030_p10_cab3800.log
   Prev:   Default: 
Gurobi Optimizer version 9.0.2 build v9.0.2rc0 (win64)
Optimize a model with 1243974 rows, 762167 columns and 3491691 nonzeros
Model fingerprint: 0x155e3502
Coefficient statistics:
  Matrix range     [1e-07, 4e+05]
  Objective range  [1e+00, 1e+00]
  Bounds range     [0e+00, 0e+00]
  RHS range        [2e-05, 3e+08]
Warning: Model contains large matrix coefficient range
         Consider reformulating model or setting NumericFocus parameter
         to avoid numerical issues.

Concurrent LP optimizer: primal simplex, dual simplex, and barrier
Showing barrier log only...

Presolve removed 1068997 rows and 595935 columns
Presolve time: 2.70s
Presolved: 174977 rows, 280098 columns, 652320 nonzeros

Ordering time: 0.08s

Barrier statistics:
 Dense cols : 5
 AA' NZ     : 6.422e+05
 Factor NZ  : 3.150e+06 (roughly 200 MBytes of memory)
 Factor Ops : 7.040e+07 (less than 1 second per iteration)
 Threads    : 30

                  Objective                Residual
Iter       Primal          Dual         Primal    Dual     Compl     Time
   0  -2.51778154e+16 -1.07293890e+15  7.34e+06 2.55e+04  3.02e+12     3s
   1  -5.46481878e+15 -1.08609832e+15  1.59e+06 4.56e+06  8.52e+11     3s
   2  -1.75497681e+15 -1.02428493e+15  5.12e+05 8.63e+05  2.46e+11     4s
   3  -3.45297925e+14 -8.98964250e+14  1.02e+05 1.37e+05  4.94e+10     4s
   4  -7.78916240e+13 -5.52861332e+14  2.21e+04 3.75e+04  1.18e+10     4s
   5  -2.42125582e+13 -3.73572589e+14  7.03e+03 1.86e+04  4.53e+09     5s
   6  -7.28771955e+12 -2.62664060e+14  2.30e+03 9.23e+03  1.92e+09     5s
   7  -2.23993446e+12 -1.01279701e+14  8.24e+02 8.01e+02  4.34e+08     5s
   8   4.57895100e+11 -2.77203257e+13  2.00e+01 4.03e+01  5.52e+07     5s
   9   3.38488650e+11 -2.04431176e+12  5.97e+00 2.84e+00  4.59e+06     5s
  10   1.10999970e+11 -7.98787073e+11  1.13e+00 9.02e-01  1.66e+06     6s
  11   4.24354915e+10 -3.25385969e+11  3.00e-01 1.65e-01  6.60e+05     6s
  12   2.15042873e+10 -1.31665462e+11  1.20e-01 5.59e-09  2.73e+05     6s
  13   1.21263462e+10 -4.69326622e+10  3.86e-02 5.59e-09  1.05e+05     6s
  14   9.46646989e+09 -1.47990800e+10  1.54e-02 5.59e-09  4.31e+04     7s
  15   8.35067524e+09 -3.84048003e+09  6.65e-03 5.59e-09  2.16e+04     7s
  16   7.82206019e+09  3.35533625e+09  3.07e-03 5.59e-09  7.93e+03     7s
  17   7.55677678e+09  4.44682318e+09  1.63e-03 5.59e-09  5.50e+03     7s
  18   7.45937426e+09  5.91351045e+09  1.13e-03 3.73e-09  2.74e+03     8s
  19   7.38359509e+09  6.42389434e+09  7.65e-04 2.79e-09  1.70e+03     8s
  20   7.33723107e+09  6.54167182e+09  5.47e-04 2.79e-09  1.41e+03     8s
  21   7.27950142e+09  6.64983795e+09  2.72e-04 2.79e-09  1.11e+03     8s
  22   7.25867167e+09  6.76920729e+09  1.76e-04 2.79e-09  8.63e+02     9s
  23   7.23849735e+09  6.96281807e+09  9.64e-05 1.86e-09  4.86e+02     9s
  24   7.23084294e+09  7.01704825e+09  6.56e-05 1.86e-09  3.77e+02     9s
  25   7.22917569e+09  7.03415589e+09  5.97e-05 1.86e-09  3.44e+02     9s
  26   7.22428096e+09  7.05325569e+09  4.09e-05 2.79e-09  3.01e+02    10s
  27   7.21943899e+09  7.07021123e+09  2.42e-05 2.79e-09  2.63e+02    10s
  28   7.21479175e+09  7.15239381e+09  9.48e-06 1.86e-09  1.10e+02    10s
  29   7.21327114e+09  7.17749281e+09  5.35e-06 1.86e-09  6.30e+01    11s
  30   7.21233526e+09  7.18709443e+09  2.90e-06 1.86e-09  4.44e+01    11s
  31   7.21180456e+09  7.19418621e+09  1.45e-06 1.86e-09  3.10e+01    11s
  32   7.21149820e+09  7.20019597e+09  7.88e-07 1.86e-09  1.99e+01    11s
  33   7.21123325e+09  7.20442982e+09  2.49e-07 1.86e-09  1.20e+01    11s
  34   7.21108697e+09  7.20913655e+09  1.14e-07 2.79e-09  3.43e+00    12s
  35   7.21102805e+09  7.21074359e+09  1.11e-06 2.79e-09  5.00e-01    12s
  36   7.21100996e+09  7.21097806e+09  3.84e-07 2.79e-09  5.61e-02    12s
  37   7.21100948e+09  7.21100900e+09  2.69e-08 2.79e-09  8.47e-04    12s
  38   7.21100948e+09  7.21100907e+09  3.81e-05 2.79e-09  7.14e-04    13s

Barrier solved model in 38 iterations and 12.64 seconds
Optimal objective 7.21100948e+09

Crossover log...

   13282 DPushes remaining with DInf 0.0000000e+00                13s
       0 DPushes remaining with DInf 0.0000000e+00                14s
Warning: Markowitz tolerance tightened to 0.5

   75988 PPushes remaining with PInf 2.2404475e-03                14s
   59884 PPushes remaining with PInf 1.4869768e-02                17s
    5505 PPushes remaining with PInf 1.1991660e-03                20s
       0 PPushes remaining with PInf 0.0000000e+00                21s

  Push phase complete: Pinf 0.0000000e+00, Dinf 1.0402052e+04     21s

Iteration    Objective       Primal Inf.    Dual Inf.      Time
   89271    7.2110095e+09   0.000000e+00   1.040205e+04     21s
   89369    7.2110095e+09   0.000000e+00   0.000000e+00     23s

Solved with barrier
Solved in 89369 iterations and 23.20 seconds
Optimal objective  7.211009471e+09
Warning: unscaled primal violation = 0.000891851 and residual = 0.000891851
